%%% static parameters %%%
timespan = 1;
Fact = [4];
Distr1 = [15];
Distr2 = [30];
Clients_N = [1000];
Demand_W = [15];
Lt0 = [4];
Lt1 = [4];
SS_ = [0.85];
DS_D = [8];
K = [200];
MA = [500];
%%% dynamic parameters %%%
lost_ratio_sales_ret_th = 0.3780546074274279;
lost_ratio_sales_ret_w = 19;
lost_ratio_sales_dis_th = 0.5604366631287393;
lost_ratio_sales_dis_w = 79;
lost_ratio_sales_fac_th = 0.16950118810793158;
lost_ratio_sales_fac_w = 26;
stock_customer_MA_mean_relative_th = 0.8337207564307827;
stock_customer_MA_mean_relative_w = 99;
stock_distributor_MA_mean_relative_th = 0.9600412552435041;
stock_distributor_MA_mean_relative_w = 65;
stock_retailer_MA_mean_relative_th = 0.34839012407604975;
stock_retailer_MA_mean_relative_w = 32;
stock_factory_MA_mean_relative_th = 0.5518397659193803;
stock_factory_MA_mean_relative_w = 24;
